Na12 Sb4 Te12
1.0
   9.6783730000000006    0.0000000000000000    0.0000000000000006
   0.0000000000000016    9.6783730000000006    0.0000000000000006
   0.0000000000000000    0.0000000000000000    9.6783730000000006
Na Sb Te
12 4 12
direct
   0.5899719999999999    0.9100280000000001    0.0899720000000000 Na+
   0.1826780000000000    0.1826780000000000    0.1826780000000000 Na+
   0.3173220000000000    0.8173220000000000    0.6826780000000000 Na+
   0.6826780000000000    0.3173220000000000    0.8173220000000000 Na+
   0.9100280000000001    0.0899719999999999    0.5899720000000001 Na+
   0.0899719999999999    0.5899719999999999    0.9100279999999999 Na+
   0.4100280000000001    0.4100280000000001    0.4100279999999999 Na+
   0.3274480000000000    0.1725520000000000    0.8274480000000000 Na+
   0.1725520000000000    0.8274480000000000    0.3274480000000000 Na+
   0.8274480000000000    0.3274480000000000    0.1725520000000000 Na+
   0.6725520000000000    0.6725520000000000    0.6725520000000000 Na+
   0.8173220000000000    0.6826780000000000    0.3173220000000000 Na+
   0.0387260000000000    0.4612740000000000    0.5387260000000000 Sb3+
   0.4612740000000000    0.5387260000000000    0.0387260000000000 Sb3+
   0.9612740000000000    0.9612740000000000    0.9612740000000000 Sb3+
   0.5387260000000000    0.0387260000000000    0.4612740000000000 Sb3+
   0.2595890000000000    0.1194560000000000    0.5026210000000000 Te2-
   0.7404109999999999    0.6194560000000000    0.9973790000000000 Te2-
   0.3805440000000000    0.4973790000000000    0.7595890000000001 Te2-
   0.9973790000000000    0.7404109999999999    0.6194560000000000 Te2-
   0.4973790000000000    0.7595890000000001    0.3805440000000000 Te2-
   0.1194560000000000    0.5026210000000000    0.2595890000000000 Te2-
   0.5026210000000000    0.2595890000000000    0.1194560000000000 Te2-
   0.6194560000000000    0.9973790000000000    0.7404109999999999 Te2-
   0.8805440000000000    0.0026210000000000    0.2404110000000000 Te2-
   0.0026210000000000    0.2404110000000000    0.8805440000000000 Te2-
   0.2404110000000000    0.8805440000000000    0.0026210000000000 Te2-
   0.7595890000000001    0.3805440000000000    0.4973790000000000 Te2-
