Pr108 Mn162 Sb216 S648
1.0
   0.0000000000000000   60.0888240000000025    0.0000000000000000
  11.7123179999999998    0.0000000000000000    0.0000000000000000
   0.0000000000000000  -26.5794089999999876  -36.1391669999999934
Pr Mn Sb S
108 162 216 648
direct
   0.0865140000000000    0.1666666666666667    0.2875916666666667 Pr
   0.4198473333333334    0.1666666666666667    0.2875916666666667 Pr
   0.7531806666666666    0.1666666666666667    0.2875916666666667 Pr
   0.0865140000000000    0.5000000000000000    0.2875916666666667 Pr
   0.4198473333333334    0.5000000000000000    0.2875916666666667 Pr
   0.7531806666666666    0.5000000000000000    0.2875916666666667 Pr
   0.0865140000000000    0.8333333333333333    0.2875916666666667 Pr
   0.4198473333333334    0.8333333333333333    0.2875916666666667 Pr
   0.7531806666666666    0.8333333333333333    0.2875916666666667 Pr
   0.0865140000000000    0.1666666666666667    0.6209250000000001 Pr
   0.4198473333333334    0.1666666666666667    0.6209250000000001 Pr
   0.7531806666666666    0.1666666666666667    0.6209250000000001 Pr
   0.0865140000000000    0.5000000000000000    0.6209250000000001 Pr
   0.4198473333333334    0.5000000000000000    0.6209250000000001 Pr
   0.7531806666666666    0.5000000000000000    0.6209250000000001 Pr
   0.0865140000000000    0.8333333333333333    0.6209250000000001 Pr
   0.4198473333333334    0.8333333333333333    0.6209250000000001 Pr
   0.7531806666666666    0.8333333333333333    0.6209250000000001 Pr
   0.0865139999999999    0.1666666666666667    0.9542583333333333 Pr
   0.4198473333333334    0.1666666666666667    0.9542583333333333 Pr
   0.7531806666666665    0.1666666666666667    0.9542583333333333 Pr
   0.0865139999999999    0.5000000000000000    0.9542583333333333 Pr
   0.4198473333333334    0.5000000000000000    0.9542583333333333 Pr
   0.7531806666666665    0.5000000000000000    0.9542583333333333 Pr
   0.0865139999999999    0.8333333333333333    0.9542583333333333 Pr
   0.4198473333333334    0.8333333333333333    0.9542583333333333 Pr
   0.7531806666666665    0.8333333333333333    0.9542583333333333 Pr
   0.2468193333333334    0.1666666666666667    0.0457416666666667 Pr
   0.5801526666666666    0.1666666666666667    0.0457416666666667 Pr
   0.9134860000000001    0.1666666666666667    0.0457416666666667 Pr
   0.2468193333333334    0.5000000000000000    0.0457416666666667 Pr
   0.5801526666666666    0.5000000000000000    0.0457416666666667 Pr
   0.9134860000000001    0.5000000000000000    0.0457416666666667 Pr
   0.2468193333333334    0.8333333333333333    0.0457416666666667 Pr
   0.5801526666666666    0.8333333333333333    0.0457416666666667 Pr
   0.9134860000000001    0.8333333333333333    0.0457416666666667 Pr
   0.2468193333333333    0.1666666666666667    0.3790749999999999 Pr
   0.5801526666666666    0.1666666666666667    0.3790749999999999 Pr
   0.9134860000000001    0.1666666666666667    0.3790749999999999 Pr
   0.2468193333333333    0.5000000000000000    0.3790749999999999 Pr
   0.5801526666666666    0.5000000000000000    0.3790749999999999 Pr
   0.9134860000000001    0.5000000000000000    0.3790749999999999 Pr
   0.2468193333333333    0.8333333333333333    0.3790749999999999 Pr
   0.5801526666666666    0.8333333333333333    0.3790749999999999 Pr
   0.9134860000000001    0.8333333333333333    0.3790749999999999 Pr
   0.2468193333333334    0.1666666666666667    0.7124083333333334 Pr
   0.5801526666666666    0.1666666666666667    0.7124083333333334 Pr
   0.9134860000000000    0.1666666666666667    0.7124083333333334 Pr
   0.2468193333333334    0.5000000000000000    0.7124083333333334 Pr
   0.5801526666666666    0.5000000000000000    0.7124083333333334 Pr
   0.9134860000000000    0.5000000000000000    0.7124083333333334 Pr
   0.2468193333333334    0.8333333333333333    0.7124083333333334 Pr
   0.5801526666666666    0.8333333333333333    0.7124083333333334 Pr
   0.9134860000000000    0.8333333333333333    0.7124083333333334 Pr
   0.2531806666666666    0.0000000000000000    0.2875916666666667 Pr
   0.5865140000000000    0.0000000000000000    0.2875916666666667 Pr
   0.9198473333333334    0.0000000000000000    0.2875916666666667 Pr
   0.2531806666666666    0.3333333333333333    0.2875916666666667 Pr
   0.5865140000000000    0.3333333333333333    0.2875916666666667 Pr
   0.9198473333333334    0.3333333333333333    0.2875916666666667 Pr
   0.2531806666666666    0.6666666666666666    0.2875916666666667 Pr
   0.5865140000000000    0.6666666666666666    0.2875916666666667 Pr
   0.9198473333333334    0.6666666666666666    0.2875916666666667 Pr
   0.2531806666666666    0.0000000000000000    0.6209250000000001 Pr
   0.5865140000000001    0.0000000000000000    0.6209250000000001 Pr
   0.9198473333333334    0.0000000000000000    0.6209250000000001 Pr
   0.2531806666666666    0.3333333333333333    0.6209250000000001 Pr
   0.5865140000000001    0.3333333333333333    0.6209250000000001 Pr
   0.9198473333333334    0.3333333333333333    0.6209250000000001 Pr
   0.2531806666666666    0.6666666666666666    0.6209250000000001 Pr
   0.5865140000000001    0.6666666666666666    0.6209250000000001 Pr
   0.9198473333333334    0.6666666666666666    0.6209250000000001 Pr
   0.2531806666666666    0.0000000000000000    0.9542583333333333 Pr
   0.5865140000000001    0.0000000000000000    0.9542583333333333 Pr
   0.9198473333333334    0.0000000000000000    0.9542583333333333 Pr
   0.2531806666666666    0.3333333333333333    0.9542583333333333 Pr
   0.5865140000000001    0.3333333333333333    0.9542583333333333 Pr
   0.9198473333333334    0.3333333333333333    0.9542583333333333 Pr
   0.2531806666666666    0.6666666666666666    0.9542583333333333 Pr
   0.5865140000000001    0.6666666666666666    0.9542583333333333 Pr
   0.9198473333333334    0.6666666666666666    0.9542583333333333 Pr
   0.0801526666666667    0.0000000000000000    0.0457416666666667 Pr
   0.4134860000000001    0.0000000000000000    0.0457416666666667 Pr
   0.7468193333333335    0.0000000000000000    0.0457416666666667 Pr
   0.0801526666666667    0.3333333333333333    0.0457416666666667 Pr
   0.4134860000000001    0.3333333333333333    0.0457416666666667 Pr
   0.7468193333333335    0.3333333333333333    0.0457416666666667 Pr
   0.0801526666666667    0.6666666666666666    0.0457416666666667 Pr
   0.4134860000000001    0.6666666666666666    0.0457416666666667 Pr
   0.7468193333333335    0.6666666666666666    0.0457416666666667 Pr
   0.0801526666666667    0.0000000000000000    0.3790749999999999 Pr
   0.4134860000000001    0.0000000000000000    0.3790749999999999 Pr
   0.7468193333333335    0.0000000000000000    0.3790749999999999 Pr
   0.0801526666666667    0.3333333333333333    0.3790749999999999 Pr
   0.4134860000000001    0.3333333333333333    0.3790749999999999 Pr
   0.7468193333333335    0.3333333333333333    0.3790749999999999 Pr
   0.0801526666666667    0.6666666666666666    0.3790749999999999 Pr
   0.4134860000000001    0.6666666666666666    0.3790749999999999 Pr
   0.7468193333333335    0.6666666666666666    0.3790749999999999 Pr
   0.0801526666666667    0.0000000000000000    0.7124083333333334 Pr
   0.4134860000000001    0.0000000000000000    0.7124083333333334 Pr
   0.7468193333333334    0.0000000000000000    0.7124083333333334 Pr
   0.0801526666666667    0.3333333333333333    0.7124083333333334 Pr
   0.4134860000000001    0.3333333333333333    0.7124083333333334 Pr
   0.7468193333333334    0.3333333333333333    0.7124083333333334 Pr
   0.0801526666666667    0.6666666666666666    0.7124083333333334 Pr
   0.4134860000000001    0.6666666666666666    0.7124083333333334 Pr
   0.7468193333333334    0.6666666666666666    0.7124083333333334 Pr
   0.1002320000000000    0.1666666666666667    0.2067573333333334 Mn
   0.4335653333333334    0.1666666666666667    0.2067573333333334 Mn
   0.7668986666666667    0.1666666666666667    0.2067573333333334 Mn
   0.1002320000000000    0.5000000000000000    0.2067573333333334 Mn
   0.4335653333333334    0.5000000000000000    0.2067573333333334 Mn
   0.7668986666666667    0.5000000000000000    0.2067573333333334 Mn
   0.1002320000000000    0.8333333333333333    0.2067573333333334 Mn
   0.4335653333333334    0.8333333333333333    0.2067573333333334 Mn
   0.7668986666666667    0.8333333333333333    0.2067573333333334 Mn
   0.1002320000000000    0.1666666666666667    0.5400906666666666 Mn
   0.4335653333333334    0.1666666666666667    0.5400906666666666 Mn
   0.7668986666666667    0.1666666666666667    0.5400906666666666 Mn
   0.1002320000000000    0.5000000000000000    0.5400906666666666 Mn
   0.4335653333333334    0.5000000000000000    0.5400906666666666 Mn
   0.7668986666666667    0.5000000000000000    0.5400906666666666 Mn
   0.1002320000000000    0.8333333333333333    0.5400906666666666 Mn
   0.4335653333333334    0.8333333333333333    0.5400906666666666 Mn
   0.7668986666666667    0.8333333333333333    0.5400906666666666 Mn
   0.1002320000000000    0.1666666666666667    0.8734240000000001 Mn
   0.4335653333333334    0.1666666666666667    0.8734240000000001 Mn
   0.7668986666666666    0.1666666666666667    0.8734240000000001 Mn
   0.1002320000000000    0.5000000000000000    0.8734240000000001 Mn
   0.4335653333333334    0.5000000000000000    0.8734240000000001 Mn
   0.7668986666666666    0.5000000000000000    0.8734240000000001 Mn
   0.1002320000000000    0.8333333333333333    0.8734240000000001 Mn
   0.4335653333333334    0.8333333333333333    0.8734240000000001 Mn
   0.7668986666666666    0.8333333333333333    0.8734240000000001 Mn
   0.2331013333333334    0.1666666666666667    0.1265760000000000 Mn
   0.5664346666666666    0.1666666666666667    0.1265760000000000 Mn
   0.8997680000000000    0.1666666666666667    0.1265760000000000 Mn
   0.2331013333333334    0.5000000000000000    0.1265760000000000 Mn
   0.5664346666666666    0.5000000000000000    0.1265760000000000 Mn
   0.8997680000000000    0.5000000000000000    0.1265760000000000 Mn
   0.2331013333333334    0.8333333333333333    0.1265760000000000 Mn
   0.5664346666666666    0.8333333333333333    0.1265760000000000 Mn
   0.8997680000000000    0.8333333333333333    0.1265760000000000 Mn
   0.2331013333333333    0.1666666666666667    0.4599093333333333 Mn
   0.5664346666666668    0.1666666666666667    0.4599093333333333 Mn
   0.8997680000000000    0.1666666666666667    0.4599093333333333 Mn
   0.2331013333333333    0.5000000000000000    0.4599093333333333 Mn
   0.5664346666666668    0.5000000000000000    0.4599093333333333 Mn
   0.8997680000000000    0.5000000000000000    0.4599093333333333 Mn
   0.2331013333333333    0.8333333333333333    0.4599093333333333 Mn
   0.5664346666666668    0.8333333333333333    0.4599093333333333 Mn
   0.8997680000000000    0.8333333333333333    0.4599093333333333 Mn
   0.2331013333333333    0.1666666666666667    0.7932426666666667 Mn
   0.5664346666666666    0.1666666666666667    0.7932426666666667 Mn
   0.8997680000000001    0.1666666666666667    0.7932426666666667 Mn
   0.2331013333333333    0.5000000000000000    0.7932426666666667 Mn
   0.5664346666666666    0.5000000000000000    0.7932426666666667 Mn
   0.8997680000000001    0.5000000000000000    0.7932426666666667 Mn
   0.2331013333333333    0.8333333333333333    0.7932426666666667 Mn
   0.5664346666666666    0.8333333333333333    0.7932426666666667 Mn
   0.8997680000000001    0.8333333333333333    0.7932426666666667 Mn
   0.0000000000000000    0.0000000000000000    0.0000000000000000 Mn
   0.3333333333333333    0.0000000000000000    0.0000000000000000 Mn
   0.6666666666666666    0.0000000000000000    0.0000000000000000 Mn
   0.0000000000000000    0.3333333333333333    0.0000000000000000 Mn
   0.3333333333333333    0.3333333333333333    0.0000000000000000 Mn
   0.6666666666666666    0.3333333333333333    0.0000000000000000 Mn
   0.0000000000000000    0.6666666666666666    0.0000000000000000 Mn
   0.3333333333333333    0.6666666666666666    0.0000000000000000 Mn
   0.6666666666666666    0.6666666666666666    0.0000000000000000 Mn
  -0.0000000000000000    0.0000000000000000    0.3333333333333334 Mn
   0.3333333333333333    0.0000000000000000    0.3333333333333334 Mn
   0.6666666666666666    0.0000000000000000    0.3333333333333334 Mn
  -0.0000000000000000    0.3333333333333333    0.3333333333333334 Mn
   0.3333333333333333    0.3333333333333333    0.3333333333333334 Mn
   0.6666666666666666    0.3333333333333333    0.3333333333333334 Mn
  -0.0000000000000000    0.6666666666666666    0.3333333333333334 Mn
   0.3333333333333333    0.6666666666666666    0.3333333333333334 Mn
   0.6666666666666666    0.6666666666666666    0.3333333333333334 Mn
  -0.0000000000000000    0.0000000000000000    0.6666666666666667 Mn
   0.3333333333333334    0.0000000000000000    0.6666666666666667 Mn
   0.6666666666666666    0.0000000000000000    0.6666666666666667 Mn
  -0.0000000000000000    0.3333333333333333    0.6666666666666667 Mn
   0.3333333333333334    0.3333333333333333    0.6666666666666667 Mn
   0.6666666666666666    0.3333333333333333    0.6666666666666667 Mn
  -0.0000000000000000    0.6666666666666666    0.6666666666666667 Mn
   0.3333333333333334    0.6666666666666666    0.6666666666666667 Mn
   0.6666666666666666    0.6666666666666666    0.6666666666666667 Mn
   0.2668986666666666    0.0000000000000000    0.2067573333333334 Mn
   0.6002319999999999    0.0000000000000000    0.2067573333333334 Mn
   0.9335653333333334    0.0000000000000000    0.2067573333333334 Mn
   0.2668986666666666    0.3333333333333333    0.2067573333333334 Mn
   0.6002319999999999    0.3333333333333333    0.2067573333333334 Mn
   0.9335653333333334    0.3333333333333333    0.2067573333333334 Mn
   0.2668986666666666    0.6666666666666666    0.2067573333333334 Mn
   0.6002319999999999    0.6666666666666666    0.2067573333333334 Mn
   0.9335653333333334    0.6666666666666666    0.2067573333333334 Mn
   0.2668986666666666    0.0000000000000000    0.5400906666666666 Mn
   0.6002320000000000    0.0000000000000000    0.5400906666666666 Mn
   0.9335653333333332    0.0000000000000000    0.5400906666666666 Mn
   0.2668986666666666    0.3333333333333333    0.5400906666666666 Mn
   0.6002320000000000    0.3333333333333333    0.5400906666666666 Mn
   0.9335653333333332    0.3333333333333333    0.5400906666666666 Mn
   0.2668986666666666    0.6666666666666666    0.5400906666666666 Mn
   0.6002320000000000    0.6666666666666666    0.5400906666666666 Mn
   0.9335653333333332    0.6666666666666666    0.5400906666666666 Mn
   0.2668986666666667    0.0000000000000000    0.8734240000000001 Mn
   0.6002320000000000    0.0000000000000000    0.8734240000000001 Mn
   0.9335653333333334    0.0000000000000000    0.8734240000000001 Mn
   0.2668986666666667    0.3333333333333333    0.8734240000000001 Mn
   0.6002320000000000    0.3333333333333333    0.8734240000000001 Mn
   0.9335653333333334    0.3333333333333333    0.8734240000000001 Mn
   0.2668986666666667    0.6666666666666666    0.8734240000000001 Mn
   0.6002320000000000    0.6666666666666666    0.8734240000000001 Mn
   0.9335653333333334    0.6666666666666666    0.8734240000000001 Mn
   0.0664346666666667    0.0000000000000000    0.1265760000000000 Mn
   0.3997680000000000    0.0000000000000000    0.1265760000000000 Mn
   0.7331013333333334    0.0000000000000000    0.1265760000000000 Mn
   0.0664346666666667    0.3333333333333333    0.1265760000000000 Mn
   0.3997680000000000    0.3333333333333333    0.1265760000000000 Mn
   0.7331013333333334    0.3333333333333333    0.1265760000000000 Mn
   0.0664346666666667    0.6666666666666666    0.1265760000000000 Mn
   0.3997680000000000    0.6666666666666666    0.1265760000000000 Mn
   0.7331013333333334    0.6666666666666666    0.1265760000000000 Mn
   0.0664346666666667    0.0000000000000000    0.4599093333333333 Mn
   0.3997680000000000    0.0000000000000000    0.4599093333333333 Mn
   0.7331013333333335    0.0000000000000000    0.4599093333333333 Mn
   0.0664346666666667    0.3333333333333333    0.4599093333333333 Mn
   0.3997680000000000    0.3333333333333333    0.4599093333333333 Mn
   0.7331013333333335    0.3333333333333333    0.4599093333333333 Mn
   0.0664346666666667    0.6666666666666666    0.4599093333333333 Mn
   0.3997680000000000    0.6666666666666666    0.4599093333333333 Mn
   0.7331013333333335    0.6666666666666666    0.4599093333333333 Mn
   0.0664346666666667    0.0000000000000000    0.7932426666666667 Mn
   0.3997680000000000    0.0000000000000000    0.7932426666666667 Mn
   0.7331013333333334    0.0000000000000000    0.7932426666666667 Mn
   0.0664346666666667    0.3333333333333333    0.7932426666666667 Mn
   0.3997680000000000    0.3333333333333333    0.7932426666666667 Mn
   0.7331013333333334    0.3333333333333333    0.7932426666666667 Mn
   0.0664346666666667    0.6666666666666666    0.7932426666666667 Mn
   0.3997680000000000    0.6666666666666666    0.7932426666666667 Mn
   0.7331013333333334    0.6666666666666666    0.7932426666666667 Mn
   0.1666666666666667    0.1666666666666667    0.0000000000000000 Mn
   0.5000000000000000    0.1666666666666667    0.0000000000000000 Mn
   0.8333333333333334    0.1666666666666667    0.0000000000000000 Mn
   0.1666666666666667    0.5000000000000000    0.0000000000000000 Mn
   0.5000000000000000    0.5000000000000000    0.0000000000000000 Mn
   0.8333333333333334    0.5000000000000000    0.0000000000000000 Mn
   0.1666666666666667    0.8333333333333333    0.0000000000000000 Mn
   0.5000000000000000    0.8333333333333333    0.0000000000000000 Mn
   0.8333333333333334    0.8333333333333333    0.0000000000000000 Mn
   0.1666666666666667    0.1666666666666667    0.3333333333333334 Mn
   0.5000000000000000    0.1666666666666667    0.3333333333333334 Mn
   0.8333333333333334    0.1666666666666667    0.3333333333333334 Mn
   0.1666666666666667    0.5000000000000000    0.3333333333333334 Mn
   0.5000000000000000    0.5000000000000000    0.3333333333333334 Mn
   0.8333333333333334    0.5000000000000000    0.3333333333333334 Mn
   0.1666666666666667    0.8333333333333333    0.3333333333333334 Mn
   0.5000000000000000    0.8333333333333333    0.3333333333333334 Mn
   0.8333333333333334    0.8333333333333333    0.3333333333333334 Mn
   0.1666666666666667    0.1666666666666667    0.6666666666666667 Mn
   0.5000000000000001    0.1666666666666667    0.6666666666666667 Mn
   0.8333333333333333    0.1666666666666667    0.6666666666666667 Mn
   0.1666666666666667    0.5000000000000000    0.6666666666666667 Mn
   0.5000000000000001    0.5000000000000000    0.6666666666666667 Mn
   0.8333333333333333    0.5000000000000000    0.6666666666666667 Mn
   0.1666666666666667    0.8333333333333333    0.6666666666666667 Mn
   0.5000000000000001    0.8333333333333333    0.6666666666666667 Mn
   0.8333333333333333    0.8333333333333333    0.6666666666666667 Mn
   0.2978543333333333    0.0000000000000000    0.1507090000000000 Sb
   0.6311876666666666    0.0000000000000000    0.1507090000000000 Sb
   0.9645210000000000    0.0000000000000000    0.1507090000000000 Sb
   0.2978543333333333    0.3333333333333333    0.1507090000000000 Sb
   0.6311876666666666    0.3333333333333333    0.1507090000000000 Sb
   0.9645210000000000    0.3333333333333333    0.1507090000000000 Sb
   0.2978543333333333    0.6666666666666666    0.1507090000000000 Sb
   0.6311876666666666    0.6666666666666666    0.1507090000000000 Sb
   0.9645210000000000    0.6666666666666666    0.1507090000000000 Sb
   0.2978543333333333    0.0000000000000000    0.4840423333333334 Sb
   0.6311876666666666    0.0000000000000000    0.4840423333333334 Sb
   0.9645210000000000    0.0000000000000000    0.4840423333333334 Sb
   0.2978543333333333    0.3333333333333333    0.4840423333333334 Sb
   0.6311876666666666    0.3333333333333333    0.4840423333333334 Sb
   0.9645210000000000    0.3333333333333333    0.4840423333333334 Sb
   0.2978543333333333    0.6666666666666666    0.4840423333333334 Sb
   0.6311876666666666    0.6666666666666666    0.4840423333333334 Sb
   0.9645210000000000    0.6666666666666666    0.4840423333333334 Sb
   0.2978543333333333    0.0000000000000000    0.8173756666666667 Sb
   0.6311876666666666    0.0000000000000000    0.8173756666666667 Sb
   0.9645210000000000    0.0000000000000000    0.8173756666666667 Sb
   0.2978543333333333    0.3333333333333333    0.8173756666666667 Sb
   0.6311876666666666    0.3333333333333333    0.8173756666666667 Sb
   0.9645210000000000    0.3333333333333333    0.8173756666666667 Sb
   0.2978543333333333    0.6666666666666666    0.8173756666666667 Sb
   0.6311876666666666    0.6666666666666666    0.8173756666666667 Sb
   0.9645210000000000    0.6666666666666666    0.8173756666666667 Sb
   0.0354790000000000    0.0000000000000000    0.1826243333333333 Sb
   0.3688123333333333    0.0000000000000000    0.1826243333333333 Sb
   0.7021456666666667    0.0000000000000000    0.1826243333333333 Sb
   0.0354790000000000    0.3333333333333333    0.1826243333333333 Sb
   0.3688123333333333    0.3333333333333333    0.1826243333333333 Sb
   0.7021456666666667    0.3333333333333333    0.1826243333333333 Sb
   0.0354790000000000    0.6666666666666666    0.1826243333333333 Sb
   0.3688123333333333    0.6666666666666666    0.1826243333333333 Sb
   0.7021456666666667    0.6666666666666666    0.1826243333333333 Sb
   0.0354790000000001    0.0000000000000000    0.5159576666666668 Sb
   0.3688123333333334    0.0000000000000000    0.5159576666666668 Sb
   0.7021456666666668    0.0000000000000000    0.5159576666666668 Sb
   0.0354790000000001    0.3333333333333333    0.5159576666666668 Sb
   0.3688123333333334    0.3333333333333333    0.5159576666666668 Sb
   0.7021456666666668    0.3333333333333333    0.5159576666666668 Sb
   0.0354790000000001    0.6666666666666666    0.5159576666666668 Sb
   0.3688123333333334    0.6666666666666666    0.5159576666666668 Sb
   0.7021456666666668    0.6666666666666666    0.5159576666666668 Sb
   0.0354790000000001    0.0000000000000000    0.8492910000000000 Sb
   0.3688123333333334    0.0000000000000000    0.8492910000000000 Sb
   0.7021456666666668    0.0000000000000000    0.8492910000000000 Sb
   0.0354790000000001    0.3333333333333333    0.8492910000000000 Sb
   0.3688123333333334    0.3333333333333333    0.8492910000000000 Sb
   0.7021456666666668    0.3333333333333333    0.8492910000000000 Sb
   0.0354790000000001    0.6666666666666666    0.8492910000000000 Sb
   0.3688123333333334    0.6666666666666666    0.8492910000000000 Sb
   0.7021456666666668    0.6666666666666666    0.8492910000000000 Sb
   0.0128196666666667    0.1666666666666667    0.2715146666666667 Sb
   0.3461530000000000    0.1666666666666667    0.2715146666666667 Sb
   0.6794863333333334    0.1666666666666667    0.2715146666666667 Sb
   0.0128196666666667    0.5000000000000000    0.2715146666666667 Sb
   0.3461530000000000    0.5000000000000000    0.2715146666666667 Sb
   0.6794863333333334    0.5000000000000000    0.2715146666666667 Sb
   0.0128196666666667    0.8333333333333333    0.2715146666666667 Sb
   0.3461530000000000    0.8333333333333333    0.2715146666666667 Sb
   0.6794863333333334    0.8333333333333333    0.2715146666666667 Sb
   0.0128196666666667    0.1666666666666667    0.6048480000000001 Sb
   0.3461530000000000    0.1666666666666667    0.6048480000000001 Sb
   0.6794863333333334    0.1666666666666667    0.6048480000000001 Sb
   0.0128196666666667    0.5000000000000000    0.6048480000000001 Sb
   0.3461530000000000    0.5000000000000000    0.6048480000000001 Sb
   0.6794863333333334    0.5000000000000000    0.6048480000000001 Sb
   0.0128196666666667    0.8333333333333333    0.6048480000000001 Sb
   0.3461530000000000    0.8333333333333333    0.6048480000000001 Sb
   0.6794863333333334    0.8333333333333333    0.6048480000000001 Sb
   0.0128196666666667    0.1666666666666667    0.9381813333333334 Sb
   0.3461530000000000    0.1666666666666667    0.9381813333333334 Sb
   0.6794863333333334    0.1666666666666667    0.9381813333333334 Sb
   0.0128196666666667    0.5000000000000000    0.9381813333333334 Sb
   0.3461530000000000    0.5000000000000000    0.9381813333333334 Sb
   0.6794863333333334    0.5000000000000000    0.9381813333333334 Sb
   0.0128196666666667    0.8333333333333333    0.9381813333333334 Sb
   0.3461530000000000    0.8333333333333333    0.9381813333333334 Sb
   0.6794863333333334    0.8333333333333333    0.9381813333333334 Sb
   0.3205136666666666    0.1666666666666667    0.0618186666666667 Sb
   0.6538469999999998    0.1666666666666667    0.0618186666666667 Sb
   0.9871803333333333    0.1666666666666667    0.0618186666666667 Sb
   0.3205136666666666    0.5000000000000000    0.0618186666666667 Sb
   0.6538469999999998    0.5000000000000000    0.0618186666666667 Sb
   0.9871803333333333    0.5000000000000000    0.0618186666666667 Sb
   0.3205136666666666    0.8333333333333333    0.0618186666666667 Sb
   0.6538469999999998    0.8333333333333333    0.0618186666666667 Sb
   0.9871803333333333    0.8333333333333333    0.0618186666666667 Sb
   0.3205136666666667    0.1666666666666667    0.3951520000000001 Sb
   0.6538470000000000    0.1666666666666667    0.3951520000000001 Sb
   0.9871803333333333    0.1666666666666667    0.3951520000000001 Sb
   0.3205136666666667    0.5000000000000000    0.3951520000000001 Sb
   0.6538470000000000    0.5000000000000000    0.3951520000000001 Sb
   0.9871803333333333    0.5000000000000000    0.3951520000000001 Sb
   0.3205136666666667    0.8333333333333333    0.3951520000000001 Sb
   0.6538470000000000    0.8333333333333333    0.3951520000000001 Sb
   0.9871803333333333    0.8333333333333333    0.3951520000000001 Sb
   0.3205136666666667    0.1666666666666667    0.7284853333333332 Sb
   0.6538470000000000    0.1666666666666667    0.7284853333333332 Sb
   0.9871803333333333    0.1666666666666667    0.7284853333333332 Sb
   0.3205136666666667    0.5000000000000000    0.7284853333333332 Sb
   0.6538470000000000    0.5000000000000000    0.7284853333333332 Sb
   0.9871803333333333    0.5000000000000000    0.7284853333333332 Sb
   0.3205136666666667    0.8333333333333333    0.7284853333333332 Sb
   0.6538470000000000    0.8333333333333333    0.7284853333333332 Sb
   0.9871803333333333    0.8333333333333333    0.7284853333333332 Sb
   0.1311876666666666    0.1666666666666667    0.1507090000000000 Sb
   0.4645210000000000    0.1666666666666667    0.1507090000000000 Sb
   0.7978543333333332    0.1666666666666667    0.1507090000000000 Sb
   0.1311876666666666    0.5000000000000000    0.1507090000000000 Sb
   0.4645210000000000    0.5000000000000000    0.1507090000000000 Sb
   0.7978543333333332    0.5000000000000000    0.1507090000000000 Sb
   0.1311876666666666    0.8333333333333333    0.1507090000000000 Sb
   0.4645210000000000    0.8333333333333333    0.1507090000000000 Sb
   0.7978543333333332    0.8333333333333333    0.1507090000000000 Sb
   0.1311876666666666    0.1666666666666667    0.4840423333333334 Sb
   0.4645210000000000    0.1666666666666667    0.4840423333333334 Sb
   0.7978543333333332    0.1666666666666667    0.4840423333333334 Sb
   0.1311876666666666    0.5000000000000000    0.4840423333333334 Sb
   0.4645210000000000    0.5000000000000000    0.4840423333333334 Sb
   0.7978543333333332    0.5000000000000000    0.4840423333333334 Sb
   0.1311876666666666    0.8333333333333333    0.4840423333333334 Sb
   0.4645210000000000    0.8333333333333333    0.4840423333333334 Sb
   0.7978543333333332    0.8333333333333333    0.4840423333333334 Sb
   0.1311876666666666    0.1666666666666667    0.8173756666666667 Sb
   0.4645210000000000    0.1666666666666667    0.8173756666666667 Sb
   0.7978543333333332    0.1666666666666667    0.8173756666666667 Sb
   0.1311876666666666    0.5000000000000000    0.8173756666666667 Sb
   0.4645210000000000    0.5000000000000000    0.8173756666666667 Sb
   0.7978543333333332    0.5000000000000000    0.8173756666666667 Sb
   0.1311876666666666    0.8333333333333333    0.8173756666666667 Sb
   0.4645210000000000    0.8333333333333333    0.8173756666666667 Sb
   0.7978543333333332    0.8333333333333333    0.8173756666666667 Sb
   0.2021456666666667    0.1666666666666667    0.1826243333333333 Sb
   0.5354790000000001    0.1666666666666667    0.1826243333333333 Sb
   0.8688123333333333    0.1666666666666667    0.1826243333333333 Sb
   0.2021456666666667    0.5000000000000000    0.1826243333333333 Sb
   0.5354790000000001    0.5000000000000000    0.1826243333333333 Sb
   0.8688123333333333    0.5000000000000000    0.1826243333333333 Sb
   0.2021456666666667    0.8333333333333333    0.1826243333333333 Sb
   0.5354790000000001    0.8333333333333333    0.1826243333333333 Sb
   0.8688123333333333    0.8333333333333333    0.1826243333333333 Sb
   0.2021456666666667    0.1666666666666667    0.5159576666666668 Sb
   0.5354790000000001    0.1666666666666667    0.5159576666666668 Sb
   0.8688123333333334    0.1666666666666667    0.5159576666666668 Sb
   0.2021456666666667    0.5000000000000000    0.5159576666666668 Sb
   0.5354790000000001    0.5000000000000000    0.5159576666666668 Sb
   0.8688123333333334    0.5000000000000000    0.5159576666666668 Sb
   0.2021456666666667    0.8333333333333333    0.5159576666666668 Sb
   0.5354790000000001    0.8333333333333333    0.5159576666666668 Sb
   0.8688123333333334    0.8333333333333333    0.5159576666666668 Sb
   0.2021456666666667    0.1666666666666667    0.8492910000000000 Sb
   0.5354790000000001    0.1666666666666667    0.8492910000000000 Sb
   0.8688123333333334    0.1666666666666667    0.8492910000000000 Sb
   0.2021456666666667    0.5000000000000000    0.8492910000000000 Sb
   0.5354790000000001    0.5000000000000000    0.8492910000000000 Sb
   0.8688123333333334    0.5000000000000000    0.8492910000000000 Sb
   0.2021456666666667    0.8333333333333333    0.8492910000000000 Sb
   0.5354790000000001    0.8333333333333333    0.8492910000000000 Sb