Pr4 Mn6 Sb8 S24
1.0
   0.0000000000000000   20.0296079999999996    0.0000000000000000
   3.9041060000000001    0.0000000000000000    0.0000000000000000
   0.0000000000000000   -8.8598029999999959  -12.0463889999999978
Pr Mn Sb S
4 6 8 24
direct
   0.2595419999999999    0.5000000000000000    0.8627750000000000 Pr3+
   0.7404580000000001    0.5000000000000000    0.1372250000000000 Pr3+
   0.7595419999999999    0.0000000000000000    0.8627750000000000 Pr3+
   0.2404580000000001    0.0000000000000000    0.1372250000000000 Pr3+
   0.3006960000000000    0.5000000000000000    0.6202720000000000 Mn2+
   0.6993040000000000    0.5000000000000000    0.3797280000000000 Mn2+
   0.0000000000000000    0.0000000000000000    0.0000000000000000 Mn2+
   0.8006959999999999    0.0000000000000000    0.6202720000000000 Mn2+
   0.1993040000000000    0.0000000000000000    0.3797280000000000 Mn2+
   0.5000000000000000    0.5000000000000000    0.0000000000000000 Mn2+
   0.8935629999999999    0.0000000000000000    0.4521269999999999 Sb3+
   0.1064370000000001    0.0000000000000000    0.5478730000000001 Sb3+
   0.0384590000000000    0.5000000000000000    0.8145440000000000 Sb3+
   0.9615410000000000    0.5000000000000000    0.1854560000000000 Sb3+
   0.3935629999999999    0.5000000000000000    0.4521269999999999 Sb3+
   0.6064370000000001    0.5000000000000000    0.5478730000000001 Sb3+
   0.5384590000000000    0.0000000000000000    0.8145440000000000 Sb3+
   0.4615410000000000    0.0000000000000000    0.1854560000000000 Sb3+
   0.9418240000000000    0.0000000000000000    0.8020820000000000 S2-
   0.0581760000000000    0.0000000000000000    0.1979180000000000 S2-
   0.4004340000000000    0.0000000000000000    0.9789560000000000 S2-
   0.5995660000000000    0.0000000000000000    0.0210440000000000 S2-
   0.1675229999999999    0.0000000000000000    0.8949020000000000 S2-
   0.8324770000000001    0.0000000000000000    0.1050980000000000 S2-
   0.0888340000000000    0.5000000000000000    0.6500450000000000 S2-
   0.9111660000000000    0.5000000000000000    0.3499550000000000 S2-
   0.7425709999999999    0.0000000000000000    0.2930969999999999 S2-
   0.2574290000000001    0.0000000000000000    0.7069030000000001 S2-
   0.1571829999999999    0.5000000000000000    0.4524380000000000 S2-
   0.8428170000000001    0.5000000000000000    0.5475620000000000 S2-
   0.4418240000000000    0.5000000000000000    0.8020820000000000 S2-
   0.5581760000000000    0.5000000000000000    0.1979180000000000 S2-
   0.9004340000000000    0.5000000000000000    0.9789560000000000 S2-
   0.0995660000000000    0.5000000000000000    0.0210440000000000 S2-
   0.6675229999999999    0.5000000000000000    0.8949020000000000 S2-
   0.3324770000000001    0.5000000000000000    0.1050980000000000 S2-
   0.5888339999999999    0.0000000000000000    0.6500450000000000 S2-
   0.4111660000000000    0.0000000000000000    0.3499550000000000 S2-
   0.2425709999999999    0.5000000000000000    0.2930969999999999 S2-
   0.7574290000000001    0.5000000000000000    0.7069030000000001 S2-
   0.6571829999999999    0.0000000000000000    0.4524380000000000 S2-
   0.3428170000000001    0.0000000000000000    0.5475620000000000 S2-
